<number of tasks>
50

<cycle time>
1000

<order strength>
0.198


<task times>
1 96
2 168
3 67
4 170
5 83
6 122
7 130
8 133
9 99
10 148
11 112
12 314
13 183
14 149
15 156
16 81
17 127
18 202
19 158
20 49
21 77
22 64
23 53
24 161
25 109
26 37
27 43
28 222
29 116
30 125
31 116
32 56
33 126
34 300
35 110
36 82
37 53
38 83
39 260
40 166
41 124
42 21
43 272
44 52
45 149
46 229
47 216
48 22
49 161
50 166

<precedence relations>
3,8
3,13
4,9
5,14
5,15
6,11
6,12
7,10
7,38
8,20
9,20
12,16
14,21
15,17
15,18
15,19
16,21
16,22
19,24
19,25
19,48
20,23
20,26
21,27
21,29
21,30
21,31
21,33
23,32
23,35
26,28
30,38
31,35
31,36
31,37
32,34
35,41
37,39
37,43
37,44
38,40
38,42
39,46
39,48
39,49
42,45
42,47
43,50

<end>
